(set-info :smt-lib-version 2.6)
(set-logic QF_NIA)
(set-info :source |
Generated by: Cristina Borralleras, Daniel Larraz, Albert Oliveras, Enric Rodriguez-Carbonell, Albert Rubio
Generated on: 2017-04-27
Generator: VeryMax
Application: Termination proving
Target solver: barcelogic
|)
(set-info :license "https://creativecommons.org/licenses/by/4.0/")
(set-info :category "industrial")
(set-info :status sat)
(declare-fun Nl10__const_65536^01 () Int)
(declare-fun Nl10fcode5^01 () Int)
(declare-fun Nl10hshift11^01 () Int)
(declare-fun Nl10__const_65536^02 () Int)
(declare-fun Nl10fcode5^02 () Int)
(declare-fun Nl10hshift11^02 () Int)
(declare-fun Nl10__const_65536^03 () Int)
(declare-fun Nl10fcode5^03 () Int)
(declare-fun Nl10hshift11^03 () Int)
(declare-fun lam0n0 () Int)
(declare-fun lam0n1 () Int)
(declare-fun lam0n2 () Int)
(declare-fun lam0n3 () Int)
(declare-fun lam0n4 () Int)
(declare-fun UndefCntr0_CT () Int)
(declare-fun Nl10CT1 () Int)
(declare-fun Nl10CT2 () Int)
(declare-fun Nl10CT3 () Int)
(declare-fun UndefCntr0___const_65536^0 () Int)
(declare-fun UndefCntr0_fcode5^0 () Int)
(declare-fun UndefCntr0_hshift11^0 () Int)
(declare-fun UndefCntr0_undef532 () Int)
(declare-fun lam1n0 () Int)
(declare-fun lam1n1 () Int)
(declare-fun lam1n2 () Int)
(declare-fun lam1n3 () Int)
(declare-fun lam1n4 () Int)
(declare-fun lam2n0 () Int)
(declare-fun lam2n1 () Int)
(declare-fun lam2n2 () Int)
(declare-fun lam2n3 () Int)
(declare-fun lam2n4 () Int)
(declare-fun lam3n0 () Int)
(declare-fun lam3n1 () Int)
(declare-fun lam3n2 () Int)
(declare-fun lam3n3 () Int)
(declare-fun lam3n4 () Int)
(declare-fun lam4n0 () Int)
(declare-fun lam4n1 () Int)
(declare-fun lam4n2 () Int)
(declare-fun lam4n3 () Int)
(declare-fun lam5n0 () Int)
(declare-fun lam5n1 () Int)
(declare-fun lam5n2 () Int)
(declare-fun lam5n3 () Int)
(declare-fun lam6n0 () Int)
(declare-fun lam6n1 () Int)
(declare-fun lam6n2 () Int)
(declare-fun lam6n3 () Int)
(declare-fun lam7n0 () Int)
(declare-fun lam7n1 () Int)
(declare-fun lam7n2 () Int)
(declare-fun lam7n3 () Int)
(declare-fun lam7n4 () Int)
(declare-fun lam8n0 () Int)
(declare-fun lam8n1 () Int)
(declare-fun lam8n2 () Int)
(declare-fun lam8n3 () Int)
(declare-fun lam8n4 () Int)
(declare-fun lam9n0 () Int)
(declare-fun lam9n1 () Int)
(declare-fun lam9n2 () Int)
(declare-fun lam9n3 () Int)
(declare-fun lam9n4 () Int)
(declare-fun lam10n0 () Int)
(declare-fun lam10n1 () Int)
(declare-fun lam10n2 () Int)
(declare-fun lam10n3 () Int)
(declare-fun lam10n4 () Int)
(declare-fun lam11n0 () Int)
(declare-fun lam11n1 () Int)
(declare-fun lam11n2 () Int)
(declare-fun lam11n3 () Int)
(declare-fun lam11n4 () Int)
(declare-fun lam12n0 () Int)
(declare-fun lam12n1 () Int)
(declare-fun lam12n2 () Int)
(declare-fun lam12n3 () Int)
(declare-fun lam12n4 () Int)
(declare-fun lam13n0 () Int)
(declare-fun lam13n1 () Int)
(declare-fun lam13n2 () Int)
(declare-fun lam13n3 () Int)
(declare-fun lam14n0 () Int)
(declare-fun lam14n1 () Int)
(declare-fun lam14n2 () Int)
(declare-fun lam14n3 () Int)
(declare-fun lam15n0 () Int)
(declare-fun lam15n1 () Int)
(declare-fun lam15n2 () Int)
(declare-fun lam15n3 () Int)
(declare-fun lam16n0 () Int)
(declare-fun lam16n1 () Int)
(declare-fun lam16n2 () Int)
(declare-fun lam16n3 () Int)
(declare-fun lam16n4 () Int)
(declare-fun lam17n0 () Int)
(declare-fun lam17n1 () Int)
(declare-fun lam17n2 () Int)
(declare-fun lam17n3 () Int)
(declare-fun lam17n4 () Int)
(declare-fun lam18n0 () Int)
(declare-fun lam18n1 () Int)
(declare-fun lam18n2 () Int)
(declare-fun lam18n3 () Int)
(declare-fun lam18n4 () Int)
(declare-fun lam19n0 () Int)
(declare-fun lam19n1 () Int)
(declare-fun lam19n2 () Int)
(declare-fun lam19n3 () Int)
(declare-fun lam19n4 () Int)
(declare-fun lam20n0 () Int)
(declare-fun lam20n1 () Int)
(declare-fun lam20n2 () Int)
(declare-fun lam20n3 () Int)
(declare-fun lam20n4 () Int)
(declare-fun lam21n0 () Int)
(declare-fun lam21n1 () Int)
(declare-fun lam21n2 () Int)
(declare-fun lam21n3 () Int)
(declare-fun lam21n4 () Int)
(declare-fun lam22n0 () Int)
(declare-fun lam22n1 () Int)
(declare-fun lam22n2 () Int)
(declare-fun lam22n3 () Int)
(declare-fun lam23n0 () Int)
(declare-fun lam23n1 () Int)
(declare-fun lam23n2 () Int)
(declare-fun lam23n3 () Int)
(declare-fun lam24n0 () Int)
(declare-fun lam24n1 () Int)
(declare-fun lam24n2 () Int)
(declare-fun lam24n3 () Int)
(declare-fun lam25n0 () Int)
(declare-fun lam25n1 () Int)
(declare-fun lam25n2 () Int)
(declare-fun lam25n3 () Int)
(declare-fun lam25n4 () Int)
(declare-fun lam26n0 () Int)
(declare-fun lam26n1 () Int)
(declare-fun lam26n2 () Int)
(declare-fun lam26n3 () Int)
(declare-fun lam26n4 () Int)
(declare-fun lam27n0 () Int)
(declare-fun lam27n1 () Int)
(declare-fun lam27n2 () Int)
(declare-fun lam27n3 () Int)
(declare-fun lam27n4 () Int)
(declare-fun lam28n0 () Int)
(declare-fun lam28n1 () Int)
(declare-fun lam28n2 () Int)
(declare-fun lam28n3 () Int)
(declare-fun lam28n4 () Int)
(declare-fun lam29n0 () Int)
(declare-fun lam29n1 () Int)
(declare-fun lam29n2 () Int)
(declare-fun lam29n3 () Int)
(declare-fun lam29n4 () Int)
(declare-fun lam30n0 () Int)
(declare-fun lam30n1 () Int)
(declare-fun lam30n2 () Int)
(declare-fun lam30n3 () Int)
(declare-fun lam30n4 () Int)
(declare-fun count^0 () Int)
(declare-fun i3^0 () Int)
(declare-fun __const_429496^0 () Int)
(declare-fun undef689 () Int)
(declare-fun block_compress^0 () Int)
(declare-fun __const_65536^0 () Int)
(declare-fun hsize^0 () Int)
(declare-fun __const_53^0 () Int)
(declare-fun undef874 () Int)
(declare-fun FV___const_65536^0_1 () Int)
(declare-fun FV_fcode5^0_1 () Int)
(declare-fun FV_hshift11^0_1 () Int)
(declare-fun lam31n0 () Int)
(declare-fun lam31n1 () Int)
(declare-fun lam31n2 () Int)
(declare-fun lam31n3 () Int)
(declare-fun FV___const_65536^0_2 () Int)
(declare-fun FV_fcode5^0_2 () Int)
(declare-fun FV_hshift11^0_2 () Int)
(assert ( and ( <= ( - 1 ) Nl10__const_65536^01 ) ( <= Nl10__const_65536^01 1 ) ( <= ( - 1 ) Nl10fcode5^01 ) ( <= Nl10fcode5^01 1 ) ( <= ( - 1 ) Nl10hshift11^01 ) ( <= Nl10hshift11^01 1 ) ( <= ( - 1 ) Nl10__const_65536^02 ) ( <= Nl10__const_65536^02 1 ) ( <= ( - 1 ) Nl10fcode5^02 ) ( <= Nl10fcode5^02 1 ) ( <= ( - 1 ) Nl10hshift11^02 ) ( <= Nl10hshift11^02 1 ) ( <= ( - 1 ) Nl10__const_65536^03 ) ( <= Nl10__const_65536^03 1 ) ( <= ( - 1 ) Nl10fcode5^03 ) ( <= Nl10fcode5^03 1 ) ( <= ( - 1 ) Nl10hshift11^03 ) ( <= Nl10hshift11^03 1 ) ))
(assert ( or ( and ( >= lam0n0 0 ) ( >= lam0n1 0 ) ( >= lam0n2 0 ) ( >= lam0n3 0 ) ( >= lam0n4 0 ) ( > ( + ( * 1 lam0n0 ) ( * UndefCntr0_CT lam0n1 ) ( * Nl10CT1 lam0n2 ) ( * Nl10CT2 lam0n3 ) ( * Nl10CT3 lam0n4 ) ( - 1 ) ) 0 ) ( = ( + ( * ( - 1 ) lam0n0 ) ( * UndefCntr0___const_65536^0 lam0n1 ) ( * Nl10__const_65536^01 lam0n2 ) ( * Nl10__const_65536^02 lam0n3 ) ( * Nl10__const_65536^03 lam0n4 ) ) 0 ) ( = ( + ( * 1 lam0n0 ) ( * UndefCntr0_fcode5^0 lam0n1 ) ( * Nl10fcode5^01 lam0n2 ) ( * Nl10fcode5^02 lam0n3 ) ( * Nl10fcode5^03 lam0n4 ) ) 0 ) ( = ( + ( * UndefCntr0_hshift11^0 lam0n1 ) ( * Nl10hshift11^01 lam0n2 ) ( * Nl10hshift11^02 lam0n3 ) ( * Nl10hshift11^03 lam0n4 ) ) 0 ) ( = ( * UndefCntr0_undef532 lam0n1 ) 0 ) ) ( and ( >= lam1n0 0 ) ( >= lam1n1 0 ) ( >= lam1n2 0 ) ( >= lam1n3 0 ) ( >= lam1n4 0 ) ( > ( + ( * 1 lam1n0 ) ( * UndefCntr0_CT lam1n1 ) ( * Nl10CT1 lam1n2 ) ( * Nl10CT2 lam1n3 ) ( * Nl10CT3 lam1n4 ) ( - 1 ( + ( + Nl10CT1 ( * Nl10fcode5^01 0 ) ) ( * Nl10hshift11^01 1 ) ) ) ) 0 ) ( = ( + ( * ( - 1 ) lam1n0 ) ( * UndefCntr0___const_65536^0 lam1n1 ) ( * Nl10__const_65536^01 lam1n2 ) ( * Nl10__const_65536^02 lam1n3 ) ( * Nl10__const_65536^03 lam1n4 ) ( - ( + 0 Nl10__const_65536^01 ) ) ) 0 ) ( = ( + ( * 1 lam1n0 ) ( * UndefCntr0_fcode5^0 lam1n1 ) ( * Nl10fcode5^01 lam1n2 ) ( * Nl10fcode5^02 lam1n3 ) ( * Nl10fcode5^03 lam1n4 ) ) 0 ) ( = ( + ( * UndefCntr0_hshift11^0 lam1n1 ) ( * Nl10hshift11^01 lam1n2 ) ( * Nl10hshift11^02 lam1n3 ) ( * Nl10hshift11^03 lam1n4 ) ( - ( + 0 ( * Nl10hshift11^01 1 ) ) ) ) 0 ) ( = ( + ( * UndefCntr0_undef532 lam1n1 ) ( - ( + 0 ( * Nl10fcode5^01 1 ) ) ) ) 0 ) ) ))
(assert ( or ( and ( >= lam0n0 0 ) ( >= lam0n1 0 ) ( >= lam0n2 0 ) ( >= lam0n3 0 ) ( >= lam0n4 0 ) ( > ( + ( * 1 lam0n0 ) ( * UndefCntr0_CT lam0n1 ) ( * Nl10CT1 lam0n2 ) ( * Nl10CT2 lam0n3 ) ( * Nl10CT3 lam0n4 ) ( - 1 ) ) 0 ) ( = ( + ( * ( - 1 ) lam0n0 ) ( * UndefCntr0___const_65536^0 lam0n1 ) ( * Nl10__const_65536^01 lam0n2 ) ( * Nl10__const_65536^02 lam0n3 ) ( * Nl10__const_65536^03 lam0n4 ) ) 0 ) ( = ( + ( * 1 lam0n0 ) ( * UndefCntr0_fcode5^0 lam0n1 ) ( * Nl10fcode5^01 lam0n2 ) ( * Nl10fcode5^02 lam0n3 ) ( * Nl10fcode5^03 lam0n4 ) ) 0 ) ( = ( + ( * UndefCntr0_hshift11^0 lam0n1 ) ( * Nl10hshift11^01 lam0n2 ) ( * Nl10hshift11^02 lam0n3 ) ( * Nl10hshift11^03 lam0n4 ) ) 0 ) ( = ( * UndefCntr0_undef532 lam0n1 ) 0 ) ) ( and ( >= lam2n0 0 ) ( >= lam2n1 0 ) ( >= lam2n2 0 ) ( >= lam2n3 0 ) ( >= lam2n4 0 ) ( > ( + ( * 1 lam2n0 ) ( * UndefCntr0_CT lam2n1 ) ( * Nl10CT1 lam2n2 ) ( * Nl10CT2 lam2n3 ) ( * Nl10CT3 lam2n4 ) ( - 1 ( + ( + Nl10CT2 ( * Nl10fcode5^02 0 ) ) ( * Nl10hshift11^02 1 ) ) ) ) 0 ) ( = ( + ( * ( - 1 ) lam2n0 ) ( * UndefCntr0___const_65536^0 lam2n1 ) ( * Nl10__const_65536^01 lam2n2 ) ( * Nl10__const_65536^02 lam2n3 ) ( * Nl10__const_65536^03 lam2n4 ) ( - ( + 0 Nl10__const_65536^02 ) ) ) 0 ) ( = ( + ( * 1 lam2n0 ) ( * UndefCntr0_fcode5^0 lam2n1 ) ( * Nl10fcode5^01 lam2n2 ) ( * Nl10fcode5^02 lam2n3 ) ( * Nl10fcode5^03 lam2n4 ) ) 0 ) ( = ( + ( * UndefCntr0_hshift11^0 lam2n1 ) ( * Nl10hshift11^01 lam2n2 ) ( * Nl10hshift11^02 lam2n3 ) ( * Nl10hshift11^03 lam2n4 ) ( - ( + 0 ( * Nl10hshift11^02 1 ) ) ) ) 0 ) ( = ( + ( * UndefCntr0_undef532 lam2n1 ) ( - ( + 0 ( * Nl10fcode5^02 1 ) ) ) ) 0 ) ) ))
(assert ( or ( and ( >= lam0n0 0 ) ( >= lam0n1 0 ) ( >= lam0n2 0 ) ( >= lam0n3 0 ) ( >= lam0n4 0 ) ( > ( + ( * 1 lam0n0 ) ( * UndefCntr0_CT lam0n1 ) ( * Nl10CT1 lam0n2 ) ( * Nl10CT2 lam0n3 ) ( * Nl10CT3 lam0n4 ) ( - 1 ) ) 0 ) ( = ( + ( * ( - 1 ) lam0n0 ) ( * UndefCntr0___const_65536^0 lam0n1 ) ( * Nl10__const_65536^01 lam0n2 ) ( * Nl10__const_65536^02 lam0n3 ) ( * Nl10__const_65536^03 lam0n4 ) ) 0 ) ( = ( + ( * 1 lam0n0 ) ( * UndefCntr0_fcode5^0 lam0n1 ) ( * Nl10fcode5^01 lam0n2 ) ( * Nl10fcode5^02 lam0n3 ) ( * Nl10fcode5^03 lam0n4 ) ) 0 ) ( = ( + ( * UndefCntr0_hshift11^0 lam0n1 ) ( * Nl10hshift11^01 lam0n2 ) ( * Nl10hshift11^02 lam0n3 ) ( * Nl10hshift11^03 lam0n4 ) ) 0 ) ( = ( * UndefCntr0_undef532 lam0n1 ) 0 ) ) ( and ( >= lam3n0 0 ) ( >= lam3n1 0 ) ( >= lam3n2 0 ) ( >= lam3n3 0 ) ( >= lam3n4 0 ) ( > ( + ( * 1 lam3n0 ) ( * UndefCntr0_CT lam3n1 ) ( * Nl10CT1 lam3n2 ) ( * Nl10CT2 lam3n3 ) ( * Nl10CT3 lam3n4 ) ( - 1 ( + ( + Nl10CT3 ( * Nl10fcode5^03 0 ) ) ( * Nl10hshift11^03 1 ) ) ) ) 0 ) ( = ( + ( * ( - 1 ) lam3n0 ) ( * UndefCntr0___const_65536^0 lam3n1 ) ( * Nl10__const_65536^01 lam3n2 ) ( * Nl10__const_65536^02 lam3n3 ) ( * Nl10__const_65536^03 lam3n4 ) ( - ( + 0 Nl10__const_65536^03 ) ) ) 0 ) ( = ( + ( * 1 lam3n0 ) ( * UndefCntr0_fcode5^0 lam3n1 ) ( * Nl10fcode5^01 lam3n2 ) ( * Nl10fcode5^02 lam3n3 ) ( * Nl10fcode5^03 lam3n4 ) ) 0 ) ( = ( + ( * UndefCntr0_hshift11^0 lam3n1 ) ( * Nl10hshift11^01 lam3n2 ) ( * Nl10hshift11^02 lam3n3 ) ( * Nl10hshift11^03 lam3n4 ) ( - ( + 0 ( * Nl10hshift11^03 1 ) ) ) ) 0 ) ( = ( + ( * UndefCntr0_undef532 lam3n1 ) ( - ( + 0 ( * Nl10fcode5^03 1 ) ) ) ) 0 ) ) ))
(assert ( and ( <= ( + Nl10CT1 ( * Nl10__const_65536^01 FV___const_65536^0_1 ) ( * Nl10fcode5^01 FV_fcode5^0_1 ) ( * Nl10hshift11^01 FV_hshift11^0_1 ) ) 0 ) ( <= ( + Nl10CT2 ( * Nl10__const_65536^02 FV___const_65536^0_1 ) ( * Nl10fcode5^02 FV_fcode5^0_1 ) ( * Nl10hshift11^02 FV_hshift11^0_1 ) ) 0 ) ( <= ( + Nl10CT3 ( * Nl10__const_65536^03 FV___const_65536^0_1 ) ( * Nl10fcode5^03 FV_fcode5^0_1 ) ( * Nl10hshift11^03 FV_hshift11^0_1 ) ) 0 ) ))
(assert ( or ( not ( = UndefCntr0___const_65536^0 0 ) ) ( not ( = UndefCntr0_fcode5^0 0 ) ) ( not ( = UndefCntr0_hshift11^0 0 ) ) ( not ( = UndefCntr0_undef532 0 ) ) ( = UndefCntr0_CT 0 ) ))
(assert ( or ( and ( = UndefCntr0___const_65536^0 0 ) ( = UndefCntr0_fcode5^0 0 ) ( = UndefCntr0_hshift11^0 0 ) ) ( not ( = UndefCntr0_undef532 0 ) ) ))
(assert ( and ( >= lam31n0 0 ) ( >= lam31n1 0 ) ( >= lam31n2 0 ) ( >= lam31n3 0 ) ( > ( + ( * Nl10CT1 lam31n1 ) ( * Nl10CT2 lam31n2 ) ( * Nl10CT3 lam31n3 ) ( - 1 ) ) 0 ) ( = ( + ( * 1 lam31n0 ) ( * Nl10__const_65536^01 lam31n1 ) ( * Nl10__const_65536^02 lam31n2 ) ( * Nl10__const_65536^03 lam31n3 ) ) 0 ) ( = ( + ( * ( - 1 ) lam31n0 ) ( * Nl10fcode5^01 lam31n1 ) ( * Nl10fcode5^02 lam31n2 ) ( * Nl10fcode5^03 lam31n3 ) ) 0 ) ( = ( + ( * Nl10hshift11^01 lam31n1 ) ( * Nl10hshift11^02 lam31n2 ) ( * Nl10hshift11^03 lam31n3 ) ) 0 ) ))
(assert ( and ( and ( <= ( + Nl10CT1 ( * Nl10__const_65536^01 FV___const_65536^0_2 ) ( * Nl10fcode5^01 FV_fcode5^0_2 ) ( * Nl10hshift11^01 FV_hshift11^0_2 ) ) 0 ) ( <= ( + Nl10CT2 ( * Nl10__const_65536^02 FV___const_65536^0_2 ) ( * Nl10fcode5^02 FV_fcode5^0_2 ) ( * Nl10hshift11^02 FV_hshift11^0_2 ) ) 0 ) ( <= ( + Nl10CT3 ( * Nl10__const_65536^03 FV___const_65536^0_2 ) ( * Nl10fcode5^03 FV_fcode5^0_2 ) ( * Nl10hshift11^03 FV_hshift11^0_2 ) ) 0 ) ) ( <= ( + 1 ( * ( - 1 ) FV___const_65536^0_2 ) FV_fcode5^0_2 ) 0 ) ))
(check-sat)
(exit)
